language ESSENCE' 1.0
$ minion Nodes: 2
$ minion TotalTime: 0.000469
$ Savile Row TotalTime: 0.137
letting y_SetOccurrence be [false, true, false, true, true;int(3..7)]
letting x_SetOccurrence be [true, false, true, true, true, true;int(4..9)]
